Special k-points for band structure CsNbO3: Γ—X—M—Γ—R—X|R—M 
16  ! intersections 
line-mode
reciprocal
    0.0000000000     0.0000000000     0.0000000000 1    GAMMA
    0.0000000000     0.5000000000     0.0000000000 1    X 


    0.0000000000     0.5000000000     0.0000000000 1    X 
    0.5000000000     0.5000000000     0.0000000000 1    M 


    0.5000000000     0.5000000000     0.0000000000 1    M 
    0.0000000000     0.0000000000     0.0000000000 1    GAMMA


    0.0000000000     0.0000000000     0.0000000000 1    GAMMA
    0.5000000000     0.5000000000     0.5000000000 1    R 


    0.5000000000     0.5000000000     0.5000000000 1    R 
    0.0000000000     0.5000000000     0.0000000000 1    X 


    0.5000000000     0.5000000000     0.5000000000 1    R 
    0.5000000000     0.5000000000     0.0000000000 1    M 


